p tw 175 318
1 106
1 107
1 168
1 169
2 57
2 123
2 124
3 61
3 62
3 146
4 74
4 75
4 96
4 97
4 158
4 159
5 72
5 73
5 82
5 83
5 101
5 102
5 162
5 163
6 59
6 60
6 92
7 88
7 89
7 139
7 140
8 83
8 135
8 136
8 164
8 165
9 77
9 78
9 97
9 98
9 144
9 145
9 160
9 161
10 107
10 108
10 175
11 56
11 57
11 124
12 14
12 62
12 119
12 120
13 29
13 125
13 126
13 145
14 18
14 62
14 125
15 29
15 80
15 81
15 175
16 70
16 71
16 110
17 46
17 58
17 59
18 132
18 133
19 93
19 94
19 156
19 157
20 58
20 116
20 117
20 148
20 149
21 41
21 108
21 109
21 169
21 170
22 65
22 66
22 79
22 80
23 73
23 136
23 174
24 41
24 109
24 170
25 113
25 114
25 138
25 139
26 67
26 68
26 128
26 172
26 173
27 37
27 85
27 86
27 153
27 154
28 75
28 76
28 129
28 130
29 39
29 120
29 121
29 145
29 150
29 151
29 175
30 127
30 128
30 171
31 115
31 116
31 141
31 142
32 86
32 87
32 155
33 68
33 69
33 171
33 172
34 52
34 91
34 92
35 105
35 106
35 166
35 167
36 48
36 103
36 165
37 154
37 155
38 55
38 56
38 122
38 123
38 151
38 152
39 104
39 118
39 119
40 63
40 93
40 156
41 44
41 170
42 111
42 112
42 147
43 71
43 72
43 110
43 111
43 137
43 146
43 147
44 167
44 168
45 100
45 101
45 173
45 174
46 143
46 144
47 55
47 98
47 99
48 102
48 103
49 104
49 105
49 166
50 131
50 132
50 159
50 160
51 60
51 61
51 95
51 96
51 157
51 158
52 63
52 64
52 90
52 91
53 84
53 85
53 149
53 150
54 133
54 134
54 137
54 138
54 161
54 162
55 56
56 57
58 59
59 60
60 61
61 62
63 64
64 65
65 66
66 67
67 68
68 69
69 70
70 71
71 72
72 73
74 75
74 129
75 76
76 77
77 78
78 79
79 80
80 81
81 82
82 83
84 85
84 148
85 86
86 87
87 88
88 89
89 90
90 91
91 92
93 94
94 95
95 96
96 97
97 98
98 99
99 100
100 101
101 102
102 103
104 105
105 106
106 107
107 108
108 109
110 111
111 112
112 113
113 114
114 115
115 116
116 117
117 118
118 119
119 120
120 121
121 122
122 123
123 124
125 126
126 127
127 128
129 130
130 131
131 132
132 133
133 134
134 135
135 136
137 138
138 139
139 140
140 141
141 142
142 143
143 144
144 145
146 147
148 149
149 150
150 151
151 152
152 153
153 154
154 155
156 157
157 158
158 159
159 160
160 161
161 162
162 163
163 164
164 165
166 167
167 168
168 169
169 170
171 172
172 173
173 174
